Data path: /scratch/opt/lxu/CFLG/benchmarks/Kgroup_A
Instance: K100.6.red
Result path: /scratch/opt/lxu/CFLG/results/Kgroup_A
Solver: Gurobi
Time limit: 7200
Formulation: LEVFP
Cover: Large
julia --project=. src/main.jl /scratch/opt/lxu/CFLG/benchmarks/Kgroup_A K100.6.red /scratch/opt/lxu/CFLG/results/Kgroup_A Gurobi 7200 LEVFP Large
The latest version of Julia in the `release` channel is 1.11.5+0.x64.linux.gnu. You currently have `1.11.4+0.x64.linux.gnu` installed. Run:

  juliaup update

in your terminal shell to install Julia 1.11.5+0.x64.linux.gnu and update the `release` channel to that version.
/scratch/opt/lxu/CFLG/benchmarks/Kgroup_A Gurobi 7200.0 /scratch/opt/lxu/CFLG/results/Kgroup_A K100.6.red LEVFP Large
/scratch/opt/lxu/CFLG/benchmarks/Kgroup_A/K100.6.red

 read graph
data loaded


after absorb:22 22

max_piece:4
problem_graph/original graph: node: 28/22 edge: 70/64 dlt: 0.7044959720114354 break_avg_len: 0.3220553014909418 break_max_len: 0.7044952675154634elapsed CPU time: 0.087479 seconds
Set parameter TokenServer to value "solice01.zib.de"
Set parameter Threads to value 1
Set parameter OutputFlag to value 1
Set parameter MIPGap to value 0.0001
Set parameter MIPGapAbs to value 0.999998
Set parameter TimeLimit to value 7199.912521

 model loaded

Gurobi Optimizer version 12.0.1 build v12.0.1rc0 (linux64 - "Debian GNU/Linux 12 (bookworm)")

CPU model: Intel(R) Xeon(R) Gold 5222 CPU @ 3.80GHz, instruction set [SSE2|AVX|AVX2|AVX512]
Thread count: 8 physical cores, 16 logical processors, using up to 1 threads

Non-default parameters:
TimeLimit  7199.912521
MIPGapAbs  0.999998
Threads  1

Optimize a model with 5139 rows, 2284 columns and 14637 nonzeros
Model fingerprint: 0x40671b42
Variable types: 98 continuous, 2186 integer (2186 binary)
Coefficient statistics:
  Matrix range     [1e-06, 1e+00]
  Objective range  [1e+00, 1e+00]
  Bounds range     [3e-02, 7e-01]
  RHS range        [3e-02, 7e+00]
Found heuristic solution: objective 33.0000000
Presolve removed 1470 rows and 99 columns
Presolve time: 0.06s
Presolved: 3669 rows, 2185 columns, 12597 nonzeros
Variable types: 98 continuous, 2087 integer (2087 binary)

Root relaxation: objective 1.972860e+00, 1795 iterations, 0.04 seconds (0.06 work units)

    Nodes    |    Current Node    |     Objective Bounds      |     Work
 Expl Unexpl |  Obj  Depth IntInf | Incumbent    BestBd   Gap | It/Node Time

     0     0    1.97286    0  336   33.00000    1.97286  94.0%     -    0s
H    0     0                      11.0000000    1.97286  82.1%     -    0s
H    0     0                       7.0000000    1.97286  71.8%     -    0s
H    0     0                       6.0000000    1.97286  67.1%     -    0s
H    0     0                       5.0000000    1.97286  60.5%     -    0s
     0     0    2.12720    0  413    5.00000    2.12720  57.5%     -    0s
     0     0    2.13420    0  376    5.00000    2.13420  57.3%     -    0s
     0     0    2.33352    0  264    5.00000    2.33352  53.3%     -    0s
     0     0    2.33714    0  245    5.00000    2.33714  53.3%     -    0s
     0     0    2.37131    0  301    5.00000    2.37131  52.6%     -    0s
     0     0    2.38032    0  302    5.00000    2.38032  52.4%     -    0s
     0     0    2.38437    0  283    5.00000    2.38437  52.3%     -    0s
     0     0    2.38460    0  323    5.00000    2.38460  52.3%     -    0s
     0     0    2.38654    0  307    5.00000    2.38654  52.3%     -    0s
     0     0    2.39456    0  315    5.00000    2.39456  52.1%     -    0s
     0     0    2.39457    0  315    5.00000    2.39457  52.1%     -    0s
     0     0    2.47092    0  245    5.00000    2.47092  50.6%     -    1s
     0     0    2.47092    0  236    5.00000    2.47092  50.6%     -    1s
     0     0    2.47641    0  258    5.00000    2.47641  50.5%     -    1s
     0     0    2.47641    0  258    5.00000    2.47641  50.5%     -    1s
     0     0    2.50000    0  333    5.00000    2.50000  50.0%     -    1s
     0     0    2.50000    0  399    5.00000    2.50000  50.0%     -    1s
     0     0    2.50000    0  172    5.00000    2.50000  50.0%     -    1s
     0     0    2.50000    0  127    5.00000    2.50000  50.0%     -    1s
     0     0    2.50000    0  227    5.00000    2.50000  50.0%     -    1s
     0     0    2.50000    0  189    5.00000    2.50000  50.0%     -    1s
     0     0    2.50000    0  264    5.00000    2.50000  50.0%     -    1s
     0     0    2.50000    0  325    5.00000    2.50000  50.0%     -    1s
     0     0    2.50000    0  266    5.00000    2.50000  50.0%     -    1s
     0     0    2.50000    0  266    5.00000    2.50000  50.0%     -    1s
     0     2    2.50000    0  262    5.00000    2.50000  50.0%     -    2s
*  127    41              40       4.0000000    2.62115  34.5%   101    3s
   382    66    3.00000   21  102    4.00000    3.00000  25.0%   108    5s

Cutting planes:
  Learned: 149
  Gomory: 2
  Cover: 137
  Implied bound: 45
  Clique: 41
  MIR: 51
  Flow cover: 73
  Zero half: 4
  Mod-K: 1
  RLT: 53
  Relax-and-lift: 36
  BQP: 54
  PSD: 12

Explored 531 nodes (89973 simplex iterations) in 6.76 seconds (7.38 work units)
Thread count was 1 (of 16 available processors)

Solution count 6: 4 5 6 ... 33

Optimal solution found (tolerance 1.00e-04)
Best objective 4.000000000000e+00, best bound 4.000000000000e+00, gap 0.0000%

User-callback calls 3958, time in user-callback 0.01 sec
Stat(MathOptInterface.OPTIMAL, 4.0, 4.0, 0.0, 0.0, 0.087479, 6.763808965682983, 531, Main.CFLG.LEVFP, "", #undef)
